appendix-picat-trial/items-59.param.fzn
array [1..59] of int: values = [45, 27, 1, 2, 27, 4, 22, 4, 36, 19, 39, 54, 26, 17, 8, 23, 35, 38, 35, 12, 52, 21, 43, 15, 46, 43, 21, 22, 49, 1, 12, 8, 47, 23, 28, 35, 4, 17, 14, 1, 45, 41, 13, 49, 24, 6, 7, 20, 4, 33, 32, 16, 46, 17, 14, 40, 40, 52, 33];
array [1..59] of int: weights = [9, 19, 15, 14, 7, 20, 18, 19, 2, 3, 15, 15, 4, 14, 3, 20, 1, 15, 13, 10, 21, 14, 18, 20, 17, 23, 18, 14, 6, 23, 14, 3, 4, 9, 20, 21, 10, 19, 9, 13, 8, 4, 11, 23, 3, 13, 2, 10, 15, 20, 23, 5, 10, 14, 4, 20, 10, 3, 18];
var {0,1}: x_00001_INTEGER :: output_var ;
var {0,1}: x_00002_INTEGER :: output_var ;
var {0,1}: x_00003_INTEGER :: output_var ;
var {0,1}: x_00004_INTEGER :: output_var ;
var {0,1}: x_00005_INTEGER :: output_var ;
var {0,1}: x_00006_INTEGER :: output_var ;
var {0,1}: x_00007_INTEGER :: output_var ;
var {0,1}: x_00008_INTEGER :: output_var ;
var {0,1}: x_00009_INTEGER :: output_var ;
var {0,1}: x_00010_INTEGER :: output_var ;
var {0,1}: x_00011_INTEGER :: output_var ;
var {0,1}: x_00012_INTEGER :: output_var ;
var {0,1}: x_00013_INTEGER :: output_var ;
var {0,1}: x_00014_INTEGER :: output_var ;
var {0,1}: x_00015_INTEGER :: output_var ;
var {0,1}: x_00016_INTEGER :: output_var ;
var {0,1}: x_00017_INTEGER :: output_var ;
var {0,1}: x_00018_INTEGER :: output_var ;
var {0,1}: x_00019_INTEGER :: output_var ;
var {0,1}: x_00020_INTEGER :: output_var ;
var {0,1}: x_00021_INTEGER :: output_var ;
var {0,1}: x_00022_INTEGER :: output_var ;
var {0,1}: x_00023_INTEGER :: output_var ;
var {0,1}: x_00024_INTEGER :: output_var ;
var {0,1}: x_00025_INTEGER :: output_var ;
var {0,1}: x_00026_INTEGER :: output_var ;
var {0,1}: x_00027_INTEGER :: output_var ;
var {0,1}: x_00028_INTEGER :: output_var ;
var {0,1}: x_00029_INTEGER :: output_var ;
var {0,1}: x_00030_INTEGER :: output_var ;
var {0,1}: x_00031_INTEGER :: output_var ;
var {0,1}: x_00032_INTEGER :: output_var ;
var {0,1}: x_00033_INTEGER :: output_var ;
var {0,1}: x_00034_INTEGER :: output_var ;
var {0,1}: x_00035_INTEGER :: output_var ;
var {0,1}: x_00036_INTEGER :: output_var ;
var {0,1}: x_00037_INTEGER :: output_var ;
var {0,1}: x_00038_INTEGER :: output_var ;
var {0,1}: x_00039_INTEGER :: output_var ;
var {0,1}: x_00040_INTEGER :: output_var ;
var {0,1}: x_00041_INTEGER :: output_var ;
var {0,1}: x_00042_INTEGER :: output_var ;
var {0,1}: x_00043_INTEGER :: output_var ;
var {0,1}: x_00044_INTEGER :: output_var ;
var {0,1}: x_00045_INTEGER :: output_var ;
var {0,1}: x_00046_INTEGER :: output_var ;
var {0,1}: x_00047_INTEGER :: output_var ;
var {0,1}: x_00048_INTEGER :: output_var ;
var {0,1}: x_00049_INTEGER :: output_var ;
var {0,1}: x_00050_INTEGER :: output_var ;
var {0,1}: x_00051_INTEGER :: output_var ;
var {0,1}: x_00052_INTEGER :: output_var ;
var {0,1}: x_00053_INTEGER :: output_var ;
var {0,1}: x_00054_INTEGER :: output_var ;
var {0,1}: x_00055_INTEGER :: output_var ;
var {0,1}: x_00056_INTEGER :: output_var ;
var {0,1}: x_00057_INTEGER :: output_var ;
var {0,1}: x_00058_INTEGER :: output_var ;
var {0,1}: x_00059_INTEGER :: output_var ;
var 0..1456: aux0:: var_is_introduced ;
constraint int_lin_eq([-1,45,27,1,2,27,4,22,4,36,19,39,54,26,17,8,23,35,38,35,12,52,21,43,15,46,43,21,22,49,1,12,8,47,23,28,35,4,17,14,1,45,41,13,49,24,6,7,20,4,33,32,16,46,17,14,40,40,52,33],[aux0,x_00001_INTEGER,x_00002_INTEGER,x_00003_INTEGER,x_00004_INTEGER,x_00005_INTEGER,x_00006_INTEGER,x_00007_INTEGER,x_00008_INTEGER,x_00009_INTEGER,x_00010_INTEGER,x_00011_INTEGER,x_00012_INTEGER,x_00013_INTEGER,x_00014_INTEGER,x_00015_INTEGER,x_00016_INTEGER,x_00017_INTEGER,x_00018_INTEGER,x_00019_INTEGER,x_00020_INTEGER,x_00021_INTEGER,x_00022_INTEGER,x_00023_INTEGER,x_00024_INTEGER,x_00025_INTEGER,x_00026_INTEGER,x_00027_INTEGER,x_00028_INTEGER,x_00029_INTEGER,x_00030_INTEGER,x_00031_INTEGER,x_00032_INTEGER,x_00033_INTEGER,x_00034_INTEGER,x_00035_INTEGER,x_00036_INTEGER,x_00037_INTEGER,x_00038_INTEGER,x_00039_INTEGER,x_00040_INTEGER,x_00041_INTEGER,x_00042_INTEGER,x_00043_INTEGER,x_00044_INTEGER,x_00045_INTEGER,x_00046_INTEGER,x_00047_INTEGER,x_00048_INTEGER,x_00049_INTEGER,x_00050_INTEGER,x_00051_INTEGER,x_00052_INTEGER,x_00053_INTEGER,x_00054_INTEGER,x_00055_INTEGER,x_00056_INTEGER,x_00057_INTEGER,x_00058_INTEGER,x_00059_INTEGER],0);
constraint int_lin_le([9,19,15,14,7,20,18,19,2,3,15,15,4,14,3,20,1,15,13,10,21,14,18,20,17,23,18,14,6,23,14,3,4,9,20,21,10,19,9,13,8,4,11,23,3,13,2,10,15,20,23,5,10,14,4,20,10,3,18,-1],[x_00001_INTEGER,x_00002_INTEGER,x_00003_INTEGER,x_00004_INTEGER,x_00005_INTEGER,x_00006_INTEGER,x_00007_INTEGER,x_00008_INTEGER,x_00009_INTEGER,x_00010_INTEGER,x_00011_INTEGER,x_00012_INTEGER,x_00013_INTEGER,x_00014_INTEGER,x_00015_INTEGER,x_00016_INTEGER,x_00017_INTEGER,x_00018_INTEGER,x_00019_INTEGER,x_00020_INTEGER,x_00021_INTEGER,x_00022_INTEGER,x_00023_INTEGER,x_00024_INTEGER,x_00025_INTEGER,x_00026_INTEGER,x_00027_INTEGER,x_00028_INTEGER,x_00029_INTEGER,x_00030_INTEGER,x_00031_INTEGER,x_00032_INTEGER,x_00033_INTEGER,x_00034_INTEGER,x_00035_INTEGER,x_00036_INTEGER,x_00037_INTEGER,x_00038_INTEGER,x_00039_INTEGER,x_00040_INTEGER,x_00041_INTEGER,x_00042_INTEGER,x_00043_INTEGER,x_00044_INTEGER,x_00045_INTEGER,x_00046_INTEGER,x_00047_INTEGER,x_00048_INTEGER,x_00049_INTEGER,x_00050_INTEGER,x_00051_INTEGER,x_00052_INTEGER,x_00053_INTEGER,x_00054_INTEGER,x_00055_INTEGER,x_00056_INTEGER,x_00057_INTEGER,x_00058_INTEGER,x_00059_INTEGER,58],0);

solve :: int_search([x_00001_INTEGER, x_00002_INTEGER, x_00003_INTEGER, x_00004_INTEGER, x_00005_INTEGER, x_00006_INTEGER, x_00007_INTEGER, x_00008_INTEGER, x_00009_INTEGER, x_00010_INTEGER, x_00011_INTEGER, x_00012_INTEGER, x_00013_INTEGER, x_00014_INTEGER, x_00015_INTEGER, x_00016_INTEGER, x_00017_INTEGER, x_00018_INTEGER, x_00019_INTEGER, x_00020_INTEGER, x_00021_INTEGER, x_00022_INTEGER, x_00023_INTEGER, x_00024_INTEGER, x_00025_INTEGER, x_00026_INTEGER, x_00027_INTEGER, x_00028_INTEGER, x_00029_INTEGER, x_00030_INTEGER, x_00031_INTEGER, x_00032_INTEGER, x_00033_INTEGER, x_00034_INTEGER, x_00035_INTEGER, x_00036_INTEGER, x_00037_INTEGER, x_00038_INTEGER, x_00039_INTEGER, x_00040_INTEGER, x_00041_INTEGER, x_00042_INTEGER, x_00043_INTEGER, x_00044_INTEGER, x_00045_INTEGER, x_00046_INTEGER, x_00047_INTEGER, x_00048_INTEGER, x_00049_INTEGER, x_00050_INTEGER, x_00051_INTEGER, x_00052_INTEGER, x_00053_INTEGER, x_00054_INTEGER, x_00055_INTEGER, x_00056_INTEGER, x_00057_INTEGER, x_00058_INTEGER, x_00059_INTEGER], input_order, indomain_min, complete)
maximize aux0;
