appendix-picat-trial/items-59.txt
58
45,27,1,2,27,4,22,4,36,19,39,54,26,17,8,23,35,38,35,12,52,21,43,15,46,43,21,22,49,1,12,8,47,23,28,35,4,17,14,1,45,41,13,49,24,6,7,20,4,33,32,16,46,17,14,40,40,52,33
9,19,15,14,7,20,18,19,2,3,15,15,4,14,3,20,1,15,13,10,21,14,18,20,17,23,18,14,6,23,14,3,4,9,20,21,10,19,9,13,8,4,11,23,3,13,2,10,15,20,23,5,10,14,4,20,10,3,18

